num_days = 3;
num_tribunals = 6;
num_time_steps = 38;
initial_time_step = 38;
num_start_times = 4;
map_start_times = [48, 60, 38, 68];
num_dissertations = 20;
availability = array3d(Days,Tribunals,StartTimes,
[0,8,10,0,	8,8,10,0,	0,8,0,0,	8,0,0,8,	8,8,0,8,	0,0,10,8,
 0,8,10,0,	8,8,0,0,	8,8,10,0,	0,0,10,0,	0,8,0,0,	8,0,10,0,
 0,0,10,8,	0,8,0,8,	8,0,0,8,	0,8,10,8,	8,0,10,8,	8,8,0,8]);